c description: Graph 3-Colorability of graph: 
c generator: CNFgen (0.9.0)
c copyright: (C) 2012-2020 Massimo Lauria <massimo.lauria@uniroma1.it>
c url: https://massimolauria.net/cnfgen
c
p cnf 150 650
1 2 3 0
-1 -2 0
-1 -3 0
-2 -3 0
4 5 6 0
-4 -5 0
-4 -6 0
-5 -6 0
7 8 9 0
-7 -8 0
-7 -9 0
-8 -9 0
10 11 12 0
-10 -11 0
-10 -12 0
-11 -12 0
13 14 15 0
-13 -14 0
-13 -15 0
-14 -15 0
16 17 18 0
-16 -17 0
-16 -18 0
-17 -18 0
19 20 21 0
-19 -20 0
-19 -21 0
-20 -21 0
22 23 24 0
-22 -23 0
-22 -24 0
-23 -24 0
25 26 27 0
-25 -26 0
-25 -27 0
-26 -27 0
28 29 30 0
-28 -29 0
-28 -30 0
-29 -30 0
31 32 33 0
-31 -32 0
-31 -33 0
-32 -33 0
34 35 36 0
-34 -35 0
-34 -36 0
-35 -36 0
37 38 39 0
-37 -38 0
-37 -39 0
-38 -39 0
40 41 42 0
-40 -41 0
-40 -42 0
-41 -42 0
43 44 45 0
-43 -44 0
-43 -45 0
-44 -45 0
46 47 48 0
-46 -47 0
-46 -48 0
-47 -48 0
49 50 51 0
-49 -50 0
-49 -51 0
-50 -51 0
52 53 54 0
-52 -53 0
-52 -54 0
-53 -54 0
55 56 57 0
-55 -56 0
-55 -57 0
-56 -57 0
58 59 60 0
-58 -59 0
-58 -60 0
-59 -60 0
61 62 63 0
-61 -62 0
-61 -63 0
-62 -63 0
64 65 66 0
-64 -65 0
-64 -66 0
-65 -66 0
67 68 69 0
-67 -68 0
-67 -69 0
-68 -69 0
70 71 72 0
-70 -71 0
-70 -72 0
-71 -72 0
73 74 75 0
-73 -74 0
-73 -75 0
-74 -75 0
76 77 78 0
-76 -77 0
-76 -78 0
-77 -78 0
79 80 81 0
-79 -80 0
-79 -81 0
-80 -81 0
82 83 84 0
-82 -83 0
-82 -84 0
-83 -84 0
85 86 87 0
-85 -86 0
-85 -87 0
-86 -87 0
88 89 90 0
-88 -89 0
-88 -90 0
-89 -90 0
91 92 93 0
-91 -92 0
-91 -93 0
-92 -93 0
94 95 96 0
-94 -95 0
-94 -96 0
-95 -96 0
97 98 99 0
-97 -98 0
-97 -99 0
-98 -99 0
100 101 102 0
-100 -101 0
-100 -102 0
-101 -102 0
103 104 105 0
-103 -104 0
-103 -105 0
-104 -105 0
106 107 108 0
-106 -107 0
-106 -108 0
-107 -108 0
109 110 111 0
-109 -110 0
-109 -111 0
-110 -111 0
112 113 114 0
-112 -113 0
-112 -114 0
-113 -114 0
115 116 117 0
-115 -116 0
-115 -117 0
-116 -117 0
118 119 120 0
-118 -119 0
-118 -120 0
-119 -120 0
121 122 123 0
-121 -122 0
-121 -123 0
-122 -123 0
124 125 126 0
-124 -125 0
-124 -126 0
-125 -126 0
127 128 129 0
-127 -128 0
-127 -129 0
-128 -129 0
130 131 132 0
-130 -131 0
-130 -132 0
-131 -132 0
133 134 135 0
-133 -134 0
-133 -135 0
-134 -135 0
136 137 138 0
-136 -137 0
-136 -138 0
-137 -138 0
139 140 141 0
-139 -140 0
-139 -141 0
-140 -141 0
142 143 144 0
-142 -143 0
-142 -144 0
-143 -144 0
145 146 147 0
-145 -146 0
-145 -147 0
-146 -147 0
148 149 150 0
-148 -149 0
-148 -150 0
-149 -150 0
-1 -58 0
-2 -59 0
-3 -60 0
-1 -70 0
-2 -71 0
-3 -72 0
-1 -88 0
-2 -89 0
-3 -90 0
-1 -94 0
-2 -95 0
-3 -96 0
-1 -142 0
-2 -143 0
-3 -144 0
-4 -49 0
-5 -50 0
-6 -51 0
-4 -55 0
-5 -56 0
-6 -57 0
-4 -67 0
-5 -68 0
-6 -69 0
-4 -97 0
-5 -98 0
-6 -99 0
-4 -112 0
-5 -113 0
-6 -114 0
-4 -115 0
-5 -116 0
-6 -117 0
-4 -127 0
-5 -128 0
-6 -129 0
-7 -76 0
-8 -77 0
-9 -78 0
-7 -94 0
-8 -95 0
-9 -96 0
-7 -124 0
-8 -125 0
-9 -126 0
-7 -127 0
-8 -128 0
-9 -129 0
-7 -133 0
-8 -134 0
-9 -135 0
-7 -145 0
-8 -146 0
-9 -147 0
-10 -76 0
-11 -77 0
-12 -78 0
-10 -103 0
-11 -104 0
-12 -105 0
-10 -139 0
-11 -140 0
-12 -141 0
-13 -52 0
-14 -53 0
-15 -54 0
-13 -85 0
-14 -86 0
-15 -87 0
-13 -130 0
-14 -131 0
-15 -132 0
-16 -46 0
-17 -47 0
-18 -48 0
-16 -52 0
-17 -53 0
-18 -54 0
-16 -67 0
-17 -68 0
-18 -69 0
-16 -76 0
-17 -77 0
-18 -78 0
-16 -85 0
-17 -86 0
-18 -87 0
-16 -91 0
-17 -92 0
-18 -93 0
-16 -94 0
-17 -95 0
-18 -96 0
-16 -148 0
-17 -149 0
-18 -150 0
-19 -22 0
-20 -23 0
-21 -24 0
-19 -25 0
-20 -26 0
-21 -27 0
-19 -37 0
-20 -38 0
-21 -39 0
-19 -55 0
-20 -56 0
-21 -57 0
-19 -58 0
-20 -59 0
-21 -60 0
-19 -127 0
-20 -128 0
-21 -129 0
-22 -31 0
-23 -32 0
-24 -33 0
-22 -37 0
-23 -38 0
-24 -39 0
-22 -64 0
-23 -65 0
-24 -66 0
-22 -91 0
-23 -92 0
-24 -93 0
-22 -127 0
-23 -128 0
-24 -129 0
-25 -79 0
-26 -80 0
-27 -81 0
-25 -94 0
-26 -95 0
-27 -96 0
-25 -109 0
-26 -110 0
-27 -111 0
-25 -112 0
-26 -113 0
-27 -114 0
-25 -115 0
-26 -116 0
-27 -117 0
-25 -121 0
-26 -122 0
-27 -123 0
-28 -79 0
-29 -80 0
-30 -81 0
-28 -97 0
-29 -98 0
-30 -99 0
-28 -142 0
-29 -143 0
-30 -144 0
-31 -34 0
-32 -35 0
-33 -36 0
-31 -58 0
-32 -59 0
-33 -60 0
-31 -94 0
-32 -95 0
-33 -96 0
-31 -121 0
-32 -122 0
-33 -123 0
-34 -67 0
-35 -68 0
-36 -69 0
-34 -76 0
-35 -77 0
-36 -78 0
-34 -85 0
-35 -86 0
-36 -87 0
-34 -109 0
-35 -110 0
-36 -111 0
-34 -112 0
-35 -113 0
-36 -114 0
-37 -61 0
-38 -62 0
-39 -63 0
-37 -64 0
-38 -65 0
-39 -66 0
-37 -91 0
-38 -92 0
-39 -93 0
-37 -106 0
-38 -107 0
-39 -108 0
-37 -145 0
-38 -146 0
-39 -147 0
-37 -148 0
-38 -149 0
-39 -150 0
-40 -79 0
-41 -80 0
-42 -81 0
-40 -82 0
-41 -83 0
-42 -84 0
-40 -130 0
-41 -131 0
-42 -132 0
-43 -76 0
-44 -77 0
-45 -78 0
-43 -94 0
-44 -95 0
-45 -96 0
-43 -106 0
-44 -107 0
-45 -108 0
-43 -145 0
-44 -146 0
-45 -147 0
-46 -49 0
-47 -50 0
-48 -51 0
-46 -58 0
-47 -59 0
-48 -60 0
-46 -85 0
-47 -86 0
-48 -87 0
-46 -94 0
-47 -95 0
-48 -96 0
-49 -76 0
-50 -77 0
-51 -78 0
-49 -106 0
-50 -107 0
-51 -108 0
-52 -82 0
-53 -83 0
-54 -84 0
-52 -127 0
-53 -128 0
-54 -129 0
-52 -133 0
-53 -134 0
-54 -135 0
-52 -142 0
-53 -143 0
-54 -144 0
-55 -61 0
-56 -62 0
-57 -63 0
-55 -70 0
-56 -71 0
-57 -72 0
-55 -88 0
-56 -89 0
-57 -90 0
-55 -106 0
-56 -107 0
-57 -108 0
-55 -139 0
-56 -140 0
-57 -141 0
-58 -70 0
-59 -71 0
-60 -72 0
-58 -88 0
-59 -89 0
-60 -90 0
-58 -127 0
-59 -128 0
-60 -129 0
-58 -130 0
-59 -131 0
-60 -132 0
-61 -82 0
-62 -83 0
-63 -84 0
-61 -112 0
-62 -113 0
-63 -114 0
-61 -136 0
-62 -137 0
-63 -138 0
-64 -79 0
-65 -80 0
-66 -81 0
-64 -91 0
-65 -92 0
-66 -93 0
-64 -124 0
-65 -125 0
-66 -126 0
-64 -133 0
-65 -134 0
-66 -135 0
-64 -136 0
-65 -137 0
-66 -138 0
-64 -148 0
-65 -149 0
-66 -150 0
-67 -70 0
-68 -71 0
-69 -72 0
-67 -106 0
-68 -107 0
-69 -108 0
-67 -115 0
-68 -116 0
-69 -117 0
-70 -94 0
-71 -95 0
-72 -96 0
-70 -97 0
-71 -98 0
-72 -99 0
-70 -124 0
-71 -125 0
-72 -126 0
-73 -76 0
-74 -77 0
-75 -78 0
-73 -88 0
-74 -89 0
-75 -90 0
-73 -106 0
-74 -107 0
-75 -108 0
-73 -112 0
-74 -113 0
-75 -114 0
-76 -112 0
-77 -113 0
-78 -114 0
-76 -118 0
-77 -119 0
-78 -120 0
-76 -136 0
-77 -137 0
-78 -138 0
-79 -142 0
-80 -143 0
-81 -144 0
-79 -145 0
-80 -146 0
-81 -147 0
-82 -103 0
-83 -104 0
-84 -105 0
-85 -109 0
-86 -110 0
-87 -111 0
-85 -133 0
-86 -134 0
-87 -135 0
-85 -139 0
-86 -140 0
-87 -141 0
-85 -142 0
-86 -143 0
-87 -144 0
-88 -121 0
-89 -122 0
-90 -123 0
-88 -139 0
-89 -140 0
-90 -141 0
-91 -103 0
-92 -104 0
-93 -105 0
-94 -97 0
-95 -98 0
-96 -99 0
-94 -121 0
-95 -122 0
-96 -123 0
-94 -136 0
-95 -137 0
-96 -138 0
-97 -103 0
-98 -104 0
-99 -105 0
-97 -106 0
-98 -107 0
-99 -108 0
-97 -115 0
-98 -116 0
-99 -117 0
-100 -112 0
-101 -113 0
-102 -114 0
-100 -115 0
-101 -116 0
-102 -117 0
-100 -124 0
-101 -125 0
-102 -126 0
-103 -106 0
-104 -107 0
-105 -108 0
-106 -109 0
-107 -110 0
-108 -111 0
-106 -121 0
-107 -122 0
-108 -123 0
-106 -130 0
-107 -131 0
-108 -132 0
-112 -124 0
-113 -125 0
-114 -126 0
-112 -127 0
-113 -128 0
-114 -129 0
-112 -142 0
-113 -143 0
-114 -144 0
-118 -148 0
-119 -149 0
-120 -150 0
-121 -127 0
-122 -128 0
-123 -129 0
-121 -145 0
-122 -146 0
-123 -147 0
-121 -148 0
-122 -149 0
-123 -150 0
-127 -130 0
-128 -131 0
-129 -132 0
-127 -133 0
-128 -134 0
-129 -135 0
-130 -139 0
-131 -140 0
-132 -141 0
-130 -145 0
-131 -146 0
-132 -147 0
-142 -145 0
-143 -146 0
-144 -147 0